
Gurobi 9.0.1 (linux64) logging started Thu Apr 30 05:57:55 2020

Gurobi Optimizer version 9.0.1 build v9.0.1rc0 (linux64)
Optimize a model with 932 rows, 990 columns and 7056 nonzeros
Model fingerprint: 0x4be2e552
Variable types: 0 continuous, 990 integer (980 binary)
Coefficient statistics:
  Matrix range     [1e+00, 5e+00]
  Objective range  [3e+00, 1e+02]
  Bounds range     [1e+00, 1e+00]
  RHS range        [1e+00, 1e+00]

User MIP start produced solution with objective 501 (0.00s)
Loaded user MIP start with objective 501

Presolve removed 338 rows and 420 columns
Presolve time: 0.06s
Presolved: 594 rows, 570 columns, 4662 nonzeros
Variable types: 0 continuous, 570 integer (562 binary)

Root relaxation: objective 4.174766e+02, 464 iterations, 0.03 seconds

    Nodes    |    Current Node    |     Objective Bounds      |     Work
 Expl Unexpl |  Obj  Depth IntInf | Incumbent    BestBd   Gap | It/Node Time

     0     0  417.47661    0  216  501.00000  417.47661  16.7%     -    0s
     0     0  439.88788    0  228  501.00000  439.88788  12.2%     -    0s
     0     0  439.88948    0  228  501.00000  439.88948  12.2%     -    0s
     0     0  445.59197    0  245  501.00000  445.59197  11.1%     -    0s
     0     0  445.71822    0  243  501.00000  445.71822  11.0%     -    0s
     0     0  445.76297    0  245  501.00000  445.76297  11.0%     -    0s
     0     0  445.76530    0  245  501.00000  445.76530  11.0%     -    0s
     0     0  451.76389    0  227  501.00000  451.76389  9.83%     -    0s
     0     0  452.70015    0  246  501.00000  452.70015  9.64%     -    0s
     0     0  453.00016    0  237  501.00000  453.00016  9.58%     -    0s
     0     0  453.03722    0  237  501.00000  453.03722  9.57%     -    0s
     0     0  453.03722    0  237  501.00000  453.03722  9.57%     -    0s
     0     0  457.58543    0  245  501.00000  457.58543  8.67%     -    0s
     0     0  457.88166    0  247  501.00000  457.88166  8.61%     -    0s
     0     0  457.90721    0  250  501.00000  457.90721  8.60%     -    0s
     0     0  457.90796    0  248  501.00000  457.90796  8.60%     -    0s
     0     0  461.11680    0  241  501.00000  461.11680  7.96%     -    0s
     0     0  461.17186    0  243  501.00000  461.17186  7.95%     -    0s
     0     0  461.93725    0  247  501.00000  461.93725  7.80%     -    0s
     0     0  462.05716    0  242  501.00000  462.05716  7.77%     -    0s
     0     0  462.08224    0  247  501.00000  462.08224  7.77%     -    0s
     0     0  462.08700    0  248  501.00000  462.08700  7.77%     -    0s
     0     0  463.27141    0  252  501.00000  463.27141  7.53%     -    0s
     0     0  463.40723    0  248  501.00000  463.40723  7.50%     -    0s
     0     0  463.43392    0  251  501.00000  463.43392  7.50%     -    0s
     0     0  463.43579    0  251  501.00000  463.43579  7.50%     -    0s
     0     0  465.19083    0  248  501.00000  465.19083  7.15%     -    0s
     0     0  465.33287    0  255  501.00000  465.33287  7.12%     -    0s
     0     0  465.34503    0  254  501.00000  465.34503  7.12%     -    0s
     0     0  465.65983    0  246  501.00000  465.65983  7.05%     -    1s
     0     0  465.66695    0  253  501.00000  465.66695  7.05%     -    1s
     0     0  465.67031    0  249  501.00000  465.67031  7.05%     -    1s
     0     0  465.67031    0  249  501.00000  465.67031  7.05%     -    1s
     0     0  465.72078    0  214  501.00000  465.72078  7.04%     -    1s
     0     0  465.72078    0  232  501.00000  465.72078  7.04%     -    1s
     0     0  465.72078    0  230  501.00000  465.72078  7.04%     -    1s
     0     0  465.72078    0  231  501.00000  465.72078  7.04%     -    1s
     0     0  465.72078    0  231  501.00000  465.72078  7.04%     -    1s
     0     0  465.72078    0  228  501.00000  465.72078  7.04%     -    1s
     0     0  465.72078    0  232  501.00000  465.72078  7.04%     -    1s
     0     0  465.72078    0  233  501.00000  465.72078  7.04%     -    1s
     0     0  465.72078    0  233  501.00000  465.72078  7.04%     -    1s
     0     0  469.26678    0  242  501.00000  469.26678  6.33%     -    1s
     0     0  469.95712    0  233  501.00000  469.95712  6.20%     -    1s
     0     0  470.03700    0  239  501.00000  470.03700  6.18%     -    1s
     0     0  470.07643    0  238  501.00000  470.07643  6.17%     -    1s
     0     0  470.12345    0  238  501.00000  470.12345  6.16%     -    1s
     0     0  470.12439    0  238  501.00000  470.12439  6.16%     -    1s
     0     0  472.83082    0  241  501.00000  472.83082  5.62%     -    1s
     0     0  473.43933    0  237  501.00000  473.43933  5.50%     -    1s
     0     0  473.53287    0  239  501.00000  473.53287  5.48%     -    1s
     0     0  473.53712    0  241  501.00000  473.53712  5.48%     -    1s
     0     0  474.62157    0  242  501.00000  474.62157  5.27%     -    1s
     0     0  474.83613    0  245  501.00000  474.83613  5.22%     -    1s
     0     0  474.83968    0  245  501.00000  474.83968  5.22%     -    1s
     0     0  475.77732    0  245  501.00000  475.77732  5.03%     -    2s
     0     0  475.90278    0  242  501.00000  475.90278  5.01%     -    2s
     0     0  475.91953    0  241  501.00000  475.91953  5.01%     -    2s
     0     0  476.15115    0  244  501.00000  476.15115  4.96%     -    2s
     0     0  476.17893    0  244  501.00000  476.17893  4.95%     -    2s
     0     0  477.78887    0  231  501.00000  477.78887  4.63%     -    2s
     0     0  477.86522    0  233  501.00000  477.86522  4.62%     -    2s
     0     0  477.91166    0  234  501.00000  477.91166  4.61%     -    2s
     0     0  477.92896    0  235  501.00000  477.92896  4.60%     -    2s
     0     0  483.14860    0  230  501.00000  483.14860  3.56%     -    2s
     0     0  483.23436    0  230  501.00000  483.23436  3.55%     -    2s
     0     0  483.24947    0  231  501.00000  483.24947  3.54%     -    2s
     0     0  483.50816    0  233  501.00000  483.50816  3.49%     -    2s
     0     0  483.58212    0  237  501.00000  483.58212  3.48%     -    2s
     0     0  483.59168    0  237  501.00000  483.59168  3.47%     -    2s
     0     0  483.60679    0  230  501.00000  483.60679  3.47%     -    2s
     0     0  483.60679    0  230  501.00000  483.60679  3.47%     -    2s
     0     0  483.64726    0  169  501.00000  483.64726  3.46%     -    2s
     0     0  486.96393    0  182  501.00000  486.96393  2.80%     -    2s
     0     0  486.99898    0  187  501.00000  486.99898  2.79%     -    2s
     0     0  488.57979    0  191  501.00000  488.57979  2.48%     -    2s
     0     0  488.63188    0  193  501.00000  488.63188  2.47%     -    2s
     0     0  488.63297    0  192  501.00000  488.63297  2.47%     -    2s
     0     0  491.37267    0  194  501.00000  491.37267  1.92%     -    2s
     0     0  492.15883    0  187  501.00000  492.15883  1.76%     -    2s
     0     0  492.22458    0  191  501.00000  492.22458  1.75%     -    2s
     0     0  492.23756    0  191  501.00000  492.23756  1.75%     -    2s
     0     0  493.64120    0  188  501.00000  493.64120  1.47%     -    2s
     0     0  494.03986    0  189  501.00000  494.03986  1.39%     -    2s
     0     0  494.19569    0  187  501.00000  494.19569  1.36%     -    2s
     0     0  494.23195    0  186  501.00000  494.23195  1.35%     -    2s
     0     0  494.23679    0  189  501.00000  494.23679  1.35%     -    2s
     0     0  494.29358    0  189  501.00000  494.29358  1.34%     -    2s
     0     0  494.32349    0  194  501.00000  494.32349  1.33%     -    2s
     0     0  494.37063    0  194  501.00000  494.37063  1.32%     -    2s
     0     0  494.37063    0  194  501.00000  494.37063  1.32%     -    2s
     0     0     cutoff    0       501.00000  501.00000  0.00%     -    2s

Explored 1 nodes (6615 simplex iterations) in 2.95 seconds
Thread count was 1 (of 40 available processors)

Solution count 1: 501 

Optimal solution found (tolerance 1.00e-04)
Best objective 5.010000000000e+02, best bound 5.010000000000e+02, gap 0.0000%

User-callback calls 1164, time in user-callback 0.00 sec
